30
2 0 3
3 2 5
4 3 2
5 0 8
5 1 7
5 2 10
6 2 9
6 4 3
7 0 4
7 1 4
7 2 6
7 3 4
7 5 5
7 6 6
8 4 6
9 2 10
9 3 6
9 7 8
10 0 6
10 8 4
10 9 2
11 2 7
11 5 10
11 7 3
11 8 7
11 10 8
12 0 9
12 1 2
12 5 7
12 9 8
12 11 6
13 6 7
13 7 8
13 10 5
13 11 10
14 0 5
14 3 4
14 5 10
14 6 1
14 13 10
15 1 2
15 6 10
15 10 6
15 11 10
15 12 1
16 6 10
16 7 2
16 8 4
16 10 5
16 11 5
16 12 10
16 14 10
17 0 5
17 1 10
17 4 4
17 6 8
17 9 6
17 11 6
18 0 6
18 1 6
18 2 6
18 5 5
18 6 2
18 11 10
18 14 10
19 0 5
19 1 8
19 2 2
19 6 3
19 7 3
19 10 9
19 12 6
19 13 3
19 15 9
19 17 7
19 18 4
20 0 9
20 2 9
20 3 1
20 4 6
20 7 9
20 11 8
20 14 4
20 18 8
21 3 8
21 4 3
21 6 6
21 7 3
21 8 7
21 9 10
22 0 8
22 3 9
22 4 7
22 7 5
22 8 2
22 9 4
22 12 3
22 13 10
22 15 8
22 16 7
23 0 5
23 1 10
23 2 7
23 4 6
23 8 1
23 10 10
23 13 8
23 15 6
23 16 7
23 21 5
23 22 6
24 2 6
24 3 1
24 16 6
24 17 5
24 21 5
24 22 9
24 23 10
25 5 10
25 8 7
25 9 5
25 11 5
25 15 1
25 16 9
25 18 8
25 20 8
25 22 5
25 24 8
26 0 8
26 3 9
26 7 6
26 8 6
26 9 8
26 11 2
26 12 4
26 13 6
26 16 10
26 17 9
26 18 5
26 20 2
26 21 6
27 7 9
27 8 2
27 15 7
27 18 6
27 20 6
27 21 6
27 22 7
27 25 6
28 0 3
28 2 7
28 7 6
28 11 8
28 14 10
28 16 7
28 17 9
28 19 6
28 20 1
28 26 9
28 27 6
29 1 4
29 7 7
29 10 4
29 15 4
29 16 6
29 21 4
29 25 5
29 27 6
29 28 3
